Vor 2018/AðgerðaGreining/yfirferðVerkefni2/AMPL_Gogn/daemi6.txt
X [*] :=
      CDp  0
      VCR  0
camcorder  0
   camera  0
    radio  0
       tv  0
;

Total_profit = 0

X [*] :=
      CDp  0
      VCR  0
camcorder  0
   camera  0
    radio  0
       tv  0
;

Total_profit = 0

X [*] :=
      CDp  0
      VCR  0
camcorder  0
   camera  0
    radio  0
       tv  0
;

Total_profit = 0

X [*] :=
      CDp  0
      VCR  0
camcorder  0
   camera  0
    radio  0
       tv  0
;

Total_profit = 0

X [*] :=
      CDp  0
      VCR  0
camcorder  0
   camera  0
    radio  0
       tv  0
;

Total_profit = 0

X [*] :=
      CDp  0
      VCR  0
camcorder  0
   camera  0
    radio  0
       tv  0
;

Total_profit = 0

X [*] :=
      CDp  0
      VCR  0
camcorder  0
   camera  0
    radio  0
       tv  0
;

Total_profit = 0

X [*] :=
      CDp  0
      VCR  0
camcorder  0
   camera  0
    radio  0
       tv  0
;

Total_profit = 0

X [*] :=
      CDp  0
      VCR  0
camcorder  0
   camera  0
    radio  0
       tv  0
;

Total_profit = 0

X [*] :=
      CDp  0
      VCR  0
camcorder  0
   camera  0
    radio  0
       tv  0
;

Total_profit = 0

X [*] :=
      CDp  30
      VCR   2
camcorder  15
   camera  20
    radio   0
       tv   0
;

Total_profit = 4800

